(set-info :smt-lib-version 2.6)
(set-logic QF_NRA)
(set-info :source |Benchmarks generated from hycomp (https://es-static.fbk.eu/tools/hycomp/). BMC instances of non-linear hybrid automata taken from: Alessandro Cimatti, Sergio Mover, Stefano Tonetta, A quantifier-free SMT encoding of non-linear hybrid automata, FMCAD 2012 and Alessandro Cimatti, Sergio Mover, Stefano Tonetta, Quantier-free encoding of invariants for Hybrid Systems, Formal Methods in System Design. This instance solves a BMC problem of depth 2 and uses the quantifier free encoding with lemmas encoding. Contacts: Sergio Mover (mover@fbk.eu), Stefano Tonetta (tonettas@fbk.eu), Alessandro Cimatti (cimatti@fbk.eu).|)
(set-info :category "industrial")
(set-info :status sat)
;; MathSAT API call trace
;; generated on Mon Mar 19 10:44:51 2012
(declare-fun b.delta__AT1 () Real)
(declare-fun b.EVENT.0__AT1 () Bool)
(declare-fun b.EVENT.1__AT0 () Bool)
(declare-fun b.EVENT.1__AT1 () Bool)
(declare-fun b.EVENT.0__AT0 () Bool)
(declare-fun b.event_is_timed__AT2 () Bool)
(declare-fun b.time__AT1 () Real)
(declare-fun b.speed_y__AT1 () Real)
(declare-fun b.time__AT0 () Real)
(declare-fun b.time__AT2 () Real)
(declare-fun b.y__AT0 () Real)
(declare-fun b.delta__AT2 () Real)
(declare-fun b.counter.0__AT0 () Bool)
(declare-fun b.EVENT.0__AT2 () Bool)
(declare-fun b.counter.2__AT0 () Bool)
(declare-fun b.y__AT2 () Real)
(declare-fun b.counter.1__AT0 () Bool)
(declare-fun b.EVENT.1__AT2 () Bool)
(declare-fun b.counter.1__AT1 () Bool)
(declare-fun b.counter.2__AT1 () Bool)
(declare-fun speed_loss__AT0 () Real)
(declare-fun b.speed_y__AT0 () Real)
(declare-fun b.event_is_timed__AT1 () Bool)
(declare-fun b.counter.0__AT2 () Bool)
(declare-fun b.event_is_timed__AT0 () Bool)
(declare-fun b.speed_y__AT2 () Real)
(declare-fun b.counter.1__AT2 () Bool)
(declare-fun b.counter.3__AT1 () Bool)
(declare-fun b.counter.2__AT2 () Bool)
(declare-fun b.delta__AT0 () Real)
(declare-fun b.counter.3__AT2 () Bool)
(declare-fun b.y__AT1 () Real)
(declare-fun b.counter.0__AT1 () Bool)
(declare-fun b.counter.3__AT0 () Bool)
(assert (let ((.def_480 (<= b.speed_y__AT2 0.0 )))
(let ((.def_462 (* (- 49.0) b.delta__AT2)))
(let ((.def_463 (* 5.0 b.speed_y__AT2)))
(let ((.def_465 (+ .def_463 .def_462)))
(let ((.def_478 (<= .def_465 0.0 )))
(let ((.def_497 (and .def_478 .def_480)))
(let ((.def_466 (<= 0.0 .def_465)))
(let ((.def_467 (not .def_466)))
(let ((.def_460 (<= 0.0 b.speed_y__AT2)))
(let ((.def_494 (or .def_460 .def_467)))
(let ((.def_481 (not .def_480)))
(let ((.def_493 (or .def_478 .def_481)))
(let ((.def_495 (and .def_493 .def_494)))
(let ((.def_498 (and .def_495 .def_497)))
(let ((.def_492 (and .def_460 .def_466)))
(let ((.def_496 (and .def_492 .def_495)))
(let ((.def_499 (or .def_496 .def_498)))
(let ((.def_452 (* b.speed_y__AT2 b.delta__AT2)))
(let ((.def_453 (* 10.0 .def_452)))
(let ((.def_450 (* b.delta__AT2 b.delta__AT2)))
(let ((.def_451 (* (- 49.0) .def_450)))
(let ((.def_454 (+ .def_451 .def_453)))
(let ((.def_455 (* 10.0 b.y__AT2)))
(let ((.def_457 (+ .def_455 .def_454)))
(let ((.def_472 (<= .def_457 0.0 )))
(let ((.def_486 (not .def_472)))
(let ((.def_470 (<= b.y__AT2 0.0 )))
(let ((.def_487 (or .def_470 .def_486)))
(let ((.def_440 (<= 0.0 b.y__AT2)))
(let ((.def_484 (not .def_440)))
(let ((.def_458 (<= 0.0 .def_457)))
(let ((.def_485 (or .def_458 .def_484)))
(let ((.def_488 (and .def_485 .def_487)))
(let ((.def_479 (not .def_478)))
(let ((.def_482 (or .def_479 .def_481)))
(let ((.def_483 (not .def_482)))
(let ((.def_489 (or .def_483 .def_488)))
(let ((.def_474 (not .def_458)))
(let ((.def_475 (or .def_440 .def_474)))
(let ((.def_471 (not .def_470)))
(let ((.def_473 (or .def_471 .def_472)))
(let ((.def_476 (and .def_473 .def_475)))
(let ((.def_461 (not .def_460)))
(let ((.def_468 (or .def_461 .def_467)))
(let ((.def_469 (not .def_468)))
(let ((.def_477 (or .def_469 .def_476)))
(let ((.def_490 (and .def_477 .def_489)))
(let ((.def_459 (and .def_440 .def_458)))
(let ((.def_491 (and .def_459 .def_490)))
(let ((.def_500 (and .def_491 .def_499)))
(let ((.def_59 (<= speed_loss__AT0 (/ 1 2))))
(let ((.def_56 (<= (/ 1 10) speed_loss__AT0)))
(let ((.def_60 (and .def_56 .def_59)))
(let ((.def_501 (and .def_60 .def_500)))
(let ((.def_145 (not b.counter.0__AT1)))
(let ((.def_133 (not b.counter.1__AT1)))
(let ((.def_444 (and .def_133 .def_145)))
(let ((.def_140 (not b.counter.2__AT1)))
(let ((.def_445 (and .def_140 .def_444)))
(let ((.def_155 (not b.counter.3__AT1)))
(let ((.def_446 (and .def_155 .def_445)))
(let ((.def_441 (and .def_60 .def_440)))
(let ((.def_437 (not b.EVENT.0__AT2)))
(let ((.def_435 (not b.EVENT.1__AT2)))
(let ((.def_438 (or .def_435 .def_437)))
(let ((.def_6 (not b.counter.0__AT2)))
(let ((.def_4 (not b.counter.1__AT2)))
(let ((.def_428 (or .def_4 .def_6)))
(let ((.def_432 (or b.counter.3__AT2 .def_428)))
(let ((.def_429 (or b.counter.2__AT2 .def_428)))
(let ((.def_9 (not b.counter.2__AT2)))
(let ((.def_427 (or .def_6 .def_9)))
(let ((.def_430 (and .def_427 .def_429)))
(let ((.def_12 (not b.counter.3__AT2)))
(let ((.def_431 (or .def_12 .def_430)))
(let ((.def_433 (and .def_431 .def_432)))
(let ((.def_439 (and .def_433 .def_438)))
(let ((.def_442 (and .def_439 .def_441)))
(let ((.def_422 (<= 0.0 b.delta__AT1)))
(let ((.def_254 (not b.EVENT.0__AT1)))
(let ((.def_252 (not b.EVENT.1__AT1)))
(let ((.def_369 (and .def_252 .def_254)))
(let ((.def_373 (not .def_369)))
(let ((.def_423 (or .def_373 .def_422)))
(let ((.def_424 (or b.EVENT.1__AT1 .def_423)))
(let ((.def_361 (= b.counter.0__AT2 b.counter.0__AT1)))
(let ((.def_359 (= b.counter.1__AT2 b.counter.1__AT1)))
(let ((.def_357 (= b.counter.2__AT2 b.counter.2__AT1)))
(let ((.def_356 (= b.counter.3__AT2 b.counter.3__AT1)))
(let ((.def_358 (and .def_356 .def_357)))
(let ((.def_360 (and .def_358 .def_359)))
(let ((.def_362 (and .def_360 .def_361)))
(let ((.def_419 (or .def_362 .def_373)))
(let ((.def_420 (or b.EVENT.1__AT1 .def_419)))
(let ((.def_407 (* (- 10.0) b.y__AT2)))
(let ((.def_266 (* b.speed_y__AT1 b.delta__AT1)))
(let ((.def_267 (* 10.0 .def_266)))
(let ((.def_411 (+ .def_267 .def_407)))
(let ((.def_264 (* b.delta__AT1 b.delta__AT1)))
(let ((.def_265 (* (- 49.0) .def_264)))
(let ((.def_412 (+ .def_265 .def_411)))
(let ((.def_269 (* 10.0 b.y__AT1)))
(let ((.def_413 (+ .def_269 .def_412)))
(let ((.def_414 (= .def_413 0.0 )))
(let ((.def_403 (* (- 5.0) b.speed_y__AT2)))
(let ((.def_276 (* (- 49.0) b.delta__AT1)))
(let ((.def_404 (+ .def_276 .def_403)))
(let ((.def_277 (* 5.0 b.speed_y__AT1)))
(let ((.def_405 (+ .def_277 .def_404)))
(let ((.def_406 (= .def_405 0.0 )))
(let ((.def_415 (and .def_406 .def_414)))
(let ((.def_416 (or .def_373 .def_415)))
(let ((.def_367 (= b.y__AT1 b.y__AT2)))
(let ((.def_355 (= b.speed_y__AT1 b.speed_y__AT2)))
(let ((.def_400 (and .def_355 .def_367)))
(let ((.def_397 (= b.delta__AT1 0.0 )))
(let ((.def_398 (and .def_369 .def_397)))
(let ((.def_399 (not .def_398)))
(let ((.def_401 (or .def_399 .def_400)))
(let ((.def_402 (or b.EVENT.1__AT1 .def_401)))
(let ((.def_417 (and .def_402 .def_416)))
(let ((.def_379 (= b.time__AT1 b.time__AT2)))
(let ((.def_391 (and .def_367 .def_379)))
(let ((.def_392 (and .def_355 .def_391)))
(let ((.def_393 (and .def_362 .def_392)))
(let ((.def_394 (or .def_252 .def_393)))
(let ((.def_382 (* (- 1.0) b.time__AT2)))
(let ((.def_385 (+ b.delta__AT1 .def_382)))
(let ((.def_386 (+ b.time__AT1 .def_385)))
(let ((.def_387 (= .def_386 0.0 )))
(let ((.def_388 (or .def_373 .def_387)))
(let ((.def_389 (or b.EVENT.1__AT1 .def_388)))
(let ((.def_380 (or .def_369 .def_379)))
(let ((.def_381 (or b.EVENT.1__AT1 .def_380)))
(let ((.def_390 (and .def_381 .def_389)))
(let ((.def_395 (and .def_390 .def_394)))
(let ((.def_375 (= .def_373 b.event_is_timed__AT2)))
(let ((.def_372 (= b.event_is_timed__AT1 .def_369)))
(let ((.def_376 (and .def_372 .def_375)))
(let ((.def_363 (and .def_355 .def_362)))
(let ((.def_317 (= b.y__AT1 0.0 )))
(let ((.def_274 (<= 0.0 b.speed_y__AT1)))
(let ((.def_275 (not .def_274)))
(let ((.def_318 (and .def_275 .def_317)))
(let ((.def_364 (or .def_318 .def_363)))
(let ((.def_332 (or .def_6 b.counter.0__AT1)))
(let ((.def_331 (or b.counter.0__AT2 .def_145)))
(let ((.def_333 (and .def_331 .def_332)))
(let ((.def_334 (and .def_4 .def_333)))
(let ((.def_335 (or b.counter.1__AT1 .def_334)))
(let ((.def_330 (or b.counter.1__AT2 .def_133)))
(let ((.def_336 (and .def_330 .def_335)))
(let ((.def_347 (and .def_9 .def_336)))
(let ((.def_348 (or b.counter.2__AT1 .def_347)))
(let ((.def_342 (and .def_4 .def_145)))
(let ((.def_343 (or b.counter.1__AT1 .def_342)))
(let ((.def_344 (and .def_330 .def_343)))
(let ((.def_345 (and b.counter.2__AT2 .def_344)))
(let ((.def_346 (or .def_140 .def_345)))
(let ((.def_349 (and .def_346 .def_348)))
(let ((.def_350 (and b.counter.3__AT2 .def_349)))
(let ((.def_351 (or b.counter.3__AT1 .def_350)))
(let ((.def_337 (and b.counter.2__AT2 .def_336)))
(let ((.def_338 (or b.counter.2__AT1 .def_337)))
(let ((.def_326 (or b.counter.1__AT2 b.counter.1__AT1)))
(let ((.def_324 (and .def_4 b.counter.0__AT2)))
(let ((.def_325 (or .def_133 .def_324)))
(let ((.def_327 (and .def_325 .def_326)))
(let ((.def_328 (and .def_9 .def_327)))
(let ((.def_329 (or .def_140 .def_328)))
(let ((.def_339 (and .def_329 .def_338)))
(let ((.def_340 (and .def_12 .def_339)))
(let ((.def_341 (or .def_155 .def_340)))
(let ((.def_352 (and .def_341 .def_351)))
(let ((.def_320 (* (- 1.0) b.speed_y__AT1)))
(let ((.def_126 (* (- 1.0) speed_loss__AT0)))
(let ((.def_127 (+ 1.0 .def_126)))
(let ((.def_321 (* .def_127 .def_320)))
(let ((.def_323 (= .def_321 b.speed_y__AT2)))
(let ((.def_353 (and .def_323 .def_352)))
(let ((.def_319 (not .def_318)))
(let ((.def_354 (or .def_319 .def_353)))
(let ((.def_365 (and .def_354 .def_364)))
(let ((.def_368 (and .def_365 .def_367)))
(let ((.def_370 (or .def_368 .def_369)))
(let ((.def_371 (or b.EVENT.1__AT1 .def_370)))
(let ((.def_377 (and .def_371 .def_376)))
(let ((.def_396 (and .def_377 .def_395)))
(let ((.def_418 (and .def_396 .def_417)))
(let ((.def_421 (and .def_418 .def_420)))
(let ((.def_425 (and .def_421 .def_424)))
(let ((.def_426 (and .def_252 .def_425)))
(let ((.def_443 (and .def_426 .def_442)))
(let ((.def_447 (and .def_443 .def_446)))
(let ((.def_294 (<= b.speed_y__AT1 0.0 )))
(let ((.def_279 (+ .def_277 .def_276)))
(let ((.def_292 (<= .def_279 0.0 )))
(let ((.def_311 (and .def_292 .def_294)))
(let ((.def_280 (<= 0.0 .def_279)))
(let ((.def_281 (not .def_280)))
(let ((.def_308 (or .def_274 .def_281)))
(let ((.def_295 (not .def_294)))
(let ((.def_307 (or .def_292 .def_295)))
(let ((.def_309 (and .def_307 .def_308)))
(let ((.def_312 (and .def_309 .def_311)))
(let ((.def_306 (and .def_274 .def_280)))
(let ((.def_310 (and .def_306 .def_309)))
(let ((.def_313 (or .def_310 .def_312)))
(let ((.def_268 (+ .def_265 .def_267)))
(let ((.def_271 (+ .def_269 .def_268)))
(let ((.def_286 (<= .def_271 0.0 )))
(let ((.def_300 (not .def_286)))
(let ((.def_284 (<= b.y__AT1 0.0 )))
(let ((.def_301 (or .def_284 .def_300)))
(let ((.def_257 (<= 0.0 b.y__AT1)))
(let ((.def_298 (not .def_257)))
(let ((.def_272 (<= 0.0 .def_271)))
(let ((.def_299 (or .def_272 .def_298)))
(let ((.def_302 (and .def_299 .def_301)))
(let ((.def_293 (not .def_292)))
(let ((.def_296 (or .def_293 .def_295)))
(let ((.def_297 (not .def_296)))
(let ((.def_303 (or .def_297 .def_302)))
(let ((.def_288 (not .def_272)))
(let ((.def_289 (or .def_257 .def_288)))
(let ((.def_285 (not .def_284)))
(let ((.def_287 (or .def_285 .def_286)))
(let ((.def_290 (and .def_287 .def_289)))
(let ((.def_282 (or .def_275 .def_281)))
(let ((.def_283 (not .def_282)))
(let ((.def_291 (or .def_283 .def_290)))
(let ((.def_304 (and .def_291 .def_303)))
(let ((.def_273 (and .def_257 .def_272)))
(let ((.def_305 (and .def_273 .def_304)))
(let ((.def_314 (and .def_305 .def_313)))
(let ((.def_315 (and .def_60 .def_314)))
(let ((.def_258 (and .def_60 .def_257)))
(let ((.def_255 (or .def_252 .def_254)))
(let ((.def_245 (or .def_133 .def_145)))
(let ((.def_249 (or b.counter.3__AT1 .def_245)))
(let ((.def_246 (or b.counter.2__AT1 .def_245)))
(let ((.def_244 (or .def_140 .def_145)))
(let ((.def_247 (and .def_244 .def_246)))
(let ((.def_248 (or .def_155 .def_247)))
(let ((.def_250 (and .def_248 .def_249)))
(let ((.def_256 (and .def_250 .def_255)))
(let ((.def_259 (and .def_256 .def_258)))
(let ((.def_239 (<= 0.0 b.delta__AT0)))
(let ((.def_49 (not b.EVENT.0__AT0)))
(let ((.def_47 (not b.EVENT.1__AT0)))
(let ((.def_185 (and .def_47 .def_49)))
(let ((.def_189 (not .def_185)))
(let ((.def_240 (or .def_189 .def_239)))
(let ((.def_241 (or b.EVENT.1__AT0 .def_240)))
(let ((.def_177 (= b.counter.0__AT0 b.counter.0__AT1)))
(let ((.def_175 (= b.counter.1__AT0 b.counter.1__AT1)))
(let ((.def_173 (= b.counter.2__AT0 b.counter.2__AT1)))
(let ((.def_172 (= b.counter.3__AT0 b.counter.3__AT1)))
(let ((.def_174 (and .def_172 .def_173)))
(let ((.def_176 (and .def_174 .def_175)))
(let ((.def_178 (and .def_176 .def_177)))
(let ((.def_236 (or .def_178 .def_189)))
(let ((.def_237 (or b.EVENT.1__AT0 .def_236)))
(let ((.def_225 (* (- 10.0) b.y__AT1)))
(let ((.def_70 (* b.speed_y__AT0 b.delta__AT0)))
(let ((.def_71 (* 10.0 .def_70)))
(let ((.def_228 (+ .def_71 .def_225)))
(let ((.def_66 (* b.delta__AT0 b.delta__AT0)))
(let ((.def_69 (* (- 49.0) .def_66)))
(let ((.def_229 (+ .def_69 .def_228)))
(let ((.def_73 (* 10.0 b.y__AT0)))
(let ((.def_230 (+ .def_73 .def_229)))
(let ((.def_231 (= .def_230 0.0 )))
(let ((.def_220 (* (- 5.0) b.speed_y__AT1)))
(let ((.def_80 (* (- 49.0) b.delta__AT0)))
(let ((.def_221 (+ .def_80 .def_220)))
(let ((.def_82 (* 5.0 b.speed_y__AT0)))
(let ((.def_222 (+ .def_82 .def_221)))
(let ((.def_223 (= .def_222 0.0 )))
(let ((.def_232 (and .def_223 .def_231)))
(let ((.def_233 (or .def_189 .def_232)))
(let ((.def_183 (= b.y__AT0 b.y__AT1)))
(let ((.def_171 (= b.speed_y__AT0 b.speed_y__AT1)))
(let ((.def_216 (and .def_171 .def_183)))
(let ((.def_213 (= b.delta__AT0 0.0 )))
(let ((.def_214 (and .def_185 .def_213)))
(let ((.def_215 (not .def_214)))
(let ((.def_217 (or .def_215 .def_216)))
(let ((.def_218 (or b.EVENT.1__AT0 .def_217)))
(let ((.def_234 (and .def_218 .def_233)))
(let ((.def_195 (= b.time__AT0 b.time__AT1)))
(let ((.def_207 (and .def_183 .def_195)))
(let ((.def_208 (and .def_171 .def_207)))
(let ((.def_209 (and .def_178 .def_208)))
(let ((.def_210 (or .def_47 .def_209)))
(let ((.def_198 (* (- 1.0) b.time__AT1)))
(let ((.def_201 (+ b.delta__AT0 .def_198)))
(let ((.def_202 (+ b.time__AT0 .def_201)))
(let ((.def_203 (= .def_202 0.0 )))
(let ((.def_204 (or .def_189 .def_203)))
(let ((.def_205 (or b.EVENT.1__AT0 .def_204)))
(let ((.def_196 (or .def_185 .def_195)))
(let ((.def_197 (or b.EVENT.1__AT0 .def_196)))
(let ((.def_206 (and .def_197 .def_205)))
(let ((.def_211 (and .def_206 .def_210)))
(let ((.def_191 (= .def_189 b.event_is_timed__AT1)))
(let ((.def_188 (= b.event_is_timed__AT0 .def_185)))
(let ((.def_192 (and .def_188 .def_191)))
(let ((.def_179 (and .def_171 .def_178)))
(let ((.def_122 (= b.y__AT0 0.0 )))
(let ((.def_78 (<= 0.0 b.speed_y__AT0)))
(let ((.def_79 (not .def_78)))
(let ((.def_123 (and .def_79 .def_122)))
(let ((.def_180 (or .def_123 .def_179)))
(let ((.def_146 (or b.counter.0__AT0 .def_145)))
(let ((.def_30 (not b.counter.0__AT0)))
(let ((.def_144 (or .def_30 b.counter.0__AT1)))
(let ((.def_147 (and .def_144 .def_146)))
(let ((.def_148 (and .def_133 .def_147)))
(let ((.def_149 (or b.counter.1__AT0 .def_148)))
(let ((.def_28 (not b.counter.1__AT0)))
(let ((.def_143 (or .def_28 b.counter.1__AT1)))
(let ((.def_150 (and .def_143 .def_149)))
(let ((.def_163 (and .def_140 .def_150)))
(let ((.def_164 (or b.counter.2__AT0 .def_163)))
(let ((.def_158 (and .def_30 .def_133)))
(let ((.def_159 (or b.counter.1__AT0 .def_158)))
(let ((.def_160 (and .def_143 .def_159)))
(let ((.def_161 (and b.counter.2__AT1 .def_160)))
(let ((.def_33 (not b.counter.2__AT0)))
(let ((.def_162 (or .def_33 .def_161)))
(let ((.def_165 (and .def_162 .def_164)))
(let ((.def_166 (and b.counter.3__AT1 .def_165)))
(let ((.def_167 (or b.counter.3__AT0 .def_166)))
(let ((.def_151 (and b.counter.2__AT1 .def_150)))
(let ((.def_152 (or b.counter.2__AT0 .def_151)))
(let ((.def_137 (or b.counter.1__AT0 b.counter.1__AT1)))
(let ((.def_135 (and .def_133 b.counter.0__AT1)))
(let ((.def_136 (or .def_28 .def_135)))
(let ((.def_138 (and .def_136 .def_137)))
(let ((.def_141 (and .def_138 .def_140)))
(let ((.def_142 (or .def_33 .def_141)))
(let ((.def_153 (and .def_142 .def_152)))
(let ((.def_156 (and .def_153 .def_155)))
(let ((.def_36 (not b.counter.3__AT0)))
(let ((.def_157 (or .def_36 .def_156)))
(let ((.def_168 (and .def_157 .def_167)))
(let ((.def_128 (* (- 1.0) b.speed_y__AT0)))
(let ((.def_129 (* .def_127 .def_128)))
(let ((.def_131 (= .def_129 b.speed_y__AT1)))
(let ((.def_169 (and .def_131 .def_168)))
(let ((.def_124 (not .def_123)))
(let ((.def_170 (or .def_124 .def_169)))
(let ((.def_181 (and .def_170 .def_180)))
(let ((.def_184 (and .def_181 .def_183)))
(let ((.def_186 (or .def_184 .def_185)))
(let ((.def_187 (or b.EVENT.1__AT0 .def_186)))
(let ((.def_193 (and .def_187 .def_192)))
(let ((.def_212 (and .def_193 .def_211)))
(let ((.def_235 (and .def_212 .def_234)))
(let ((.def_238 (and .def_235 .def_237)))
(let ((.def_242 (and .def_238 .def_241)))
(let ((.def_243 (and .def_47 .def_242)))
(let ((.def_260 (and .def_243 .def_259)))
(let ((.def_31 (and .def_28 .def_30)))
(let ((.def_34 (and .def_31 .def_33)))
(let ((.def_37 (and .def_34 .def_36)))
(let ((.def_261 (and .def_37 .def_260)))
(let ((.def_99 (<= b.speed_y__AT0 0.0 )))
(let ((.def_84 (+ .def_82 .def_80)))
(let ((.def_97 (<= .def_84 0.0 )))
(let ((.def_116 (and .def_97 .def_99)))
(let ((.def_85 (<= 0.0 .def_84)))
(let ((.def_86 (not .def_85)))
(let ((.def_113 (or .def_78 .def_86)))
(let ((.def_100 (not .def_99)))
(let ((.def_112 (or .def_97 .def_100)))
(let ((.def_114 (and .def_112 .def_113)))
(let ((.def_117 (and .def_114 .def_116)))
(let ((.def_111 (and .def_78 .def_85)))
(let ((.def_115 (and .def_111 .def_114)))
(let ((.def_118 (or .def_115 .def_117)))
(let ((.def_72 (+ .def_69 .def_71)))
(let ((.def_75 (+ .def_73 .def_72)))
(let ((.def_91 (<= .def_75 0.0 )))
(let ((.def_105 (not .def_91)))
(let ((.def_89 (<= b.y__AT0 0.0 )))
(let ((.def_106 (or .def_89 .def_105)))
(let ((.def_52 (<= 0.0 b.y__AT0)))
(let ((.def_103 (not .def_52)))
(let ((.def_76 (<= 0.0 .def_75)))
(let ((.def_104 (or .def_76 .def_103)))
(let ((.def_107 (and .def_104 .def_106)))
(let ((.def_98 (not .def_97)))
(let ((.def_101 (or .def_98 .def_100)))
(let ((.def_102 (not .def_101)))
(let ((.def_108 (or .def_102 .def_107)))
(let ((.def_93 (not .def_76)))
(let ((.def_94 (or .def_52 .def_93)))
(let ((.def_90 (not .def_89)))
(let ((.def_92 (or .def_90 .def_91)))
(let ((.def_95 (and .def_92 .def_94)))
(let ((.def_87 (or .def_79 .def_86)))
(let ((.def_88 (not .def_87)))
(let ((.def_96 (or .def_88 .def_95)))
(let ((.def_109 (and .def_96 .def_108)))
(let ((.def_77 (and .def_52 .def_76)))
(let ((.def_110 (and .def_77 .def_109)))
(let ((.def_119 (and .def_110 .def_118)))
(let ((.def_120 (and .def_60 .def_119)))
(let ((.def_61 (and .def_52 .def_60)))
(let ((.def_50 (or .def_47 .def_49)))
(let ((.def_40 (or .def_28 .def_30)))
(let ((.def_44 (or b.counter.3__AT0 .def_40)))
(let ((.def_41 (or b.counter.2__AT0 .def_40)))
(let ((.def_39 (or .def_30 .def_33)))
(let ((.def_42 (and .def_39 .def_41)))
(let ((.def_43 (or .def_36 .def_42)))
(let ((.def_45 (and .def_43 .def_44)))
(let ((.def_51 (and .def_45 .def_50)))
(let ((.def_62 (and .def_51 .def_61)))
(let ((.def_25 (= b.speed_y__AT0 0.0 )))
(let ((.def_22 (= b.y__AT0 10.0 )))
(let ((.def_17 (= b.time__AT0 0.0 )))
(let ((.def_19 (and .def_17 b.event_is_timed__AT0)))
(let ((.def_23 (and .def_19 .def_22)))
(let ((.def_26 (and .def_23 .def_25)))
(let ((.def_38 (and .def_26 .def_37)))
(let ((.def_63 (and .def_38 .def_62)))
(let ((.def_7 (and .def_4 .def_6)))
(let ((.def_10 (and .def_7 .def_9)))
(let ((.def_13 (and .def_10 .def_12)))
(let ((.def_14 (not .def_13)))
(let ((.def_64 (and .def_14 .def_63)))
(let ((.def_121 (and .def_64 .def_120)))
(let ((.def_262 (and .def_121 .def_261)))
(let ((.def_316 (and .def_262 .def_315)))
(let ((.def_448 (and .def_316 .def_447)))
(let ((.def_502 (and .def_448 .def_501)))
.def_502))))))))))))))))))))))))))))))))))))))))))))))))))))))))))))))))))))))))))))))))))))))))))))))))))))))))))))))))))))))))))))))))))))))))))))))))))))))))))))))))))))))))))))))))))))))))))))))))))))))))))))))))))))))))))))))))))))))))))))))))))))))))))))))))))))))))))))))))))))))))))))))))))))))))))))))))))))))))))))))))))))))))))))))))))))))))))))))))))))))))))))))))))))))))))))))))))))))))))))))))))))))))))))))))))))))))))))))))))))))))
(check-sat)
(exit)
